(set-logic QF_NRA)
(declare-fun yuscore2dollarsk!1 () Real)
(declare-fun stuscore2dollarsk!0 () Real)
(assert (= yuscore2dollarsk!1 5))
(assert (= stuscore2dollarsk!0 2))
(assert (>= yuscore2dollarsk!1 1))
(assert (<= yuscore2dollarsk!1 12))
(assert (not (= stuscore2dollarsk!0 1)))
(assert (not (= stuscore2dollarsk!0 3)))
(assert (not (>= yuscore2dollarsk!1 5)))
(check-sat)
